100
128
3
20
42
3
3
24
2
1
10
30
4
27
52
1
37
11
54
51
2
44
26
51
59
51
45
47
5
61
53
45
57
15
20
60
37
35
23
42
1
40
32
26
51
36
48
21
1
62
64
2
1
3
1
2
55
5
4
54
6
58
60
33
53
50
35
34
56
56
40
44
53
48
27
54
43
9
26
32
11
3
1
5
41
57
25
1
38
44
2
7
36
6
35
1
19
37
40
3
1
51